1 3 100 710463.84
1 3 200 717144.08
1 3 300 703671.92
2 3 100 1007215.44
2 3 200 1002298.27
2 3 300 1040347.09
3 3 100 992720.95
3 3 200 1026868.10
3 3 300 1062938.13
4 3 100 972749.68
4 3 200 1004249.27
4 3 300 1035480.56
5 3 100 960661.31
5 3 200 975120.00
5 3 300 993321.45
